NAME /Users/henri/Research/solvers/instances/idol-instances/robust/collection/cbp_Subramanyam_et_al_2020/CapBud_N5_8/models/uncertain_technology_matrix/
ROWS
 N  OBJ
 L  capacity
 L  c_175
 L  c_176
 L  c_177
 L  c_178
 L  c_179
COLUMNS
    MARKER    'MARKER'                 'INTORG'
    x_0        OBJ        1.29412
    x_0        c_175      1
    x_0        capacity   0.258825
    x_1        OBJ        5.78922
    x_1        c_176      1
    x_1        capacity   1.15784
    x_2        OBJ        0.922602
    x_2        c_177      1
    x_2        capacity   0.18452
    x_3        OBJ        9.10545
    x_3        c_178      1
    x_3        capacity   1.82109
    x_4        OBJ        0.829717
    x_4        c_179      1
    x_4        capacity   0.165943
    y_0        OBJ        1.0353
    y_0        c_175      1
    y_0        capacity   0.258825
    y_1        OBJ        4.63138
    y_1        c_176      1
    y_1        capacity   1.15784
    y_2        OBJ        0.738081
    y_2        c_177      1
    y_2        capacity   0.18452
    y_3        OBJ        7.28436
    y_3        c_178      1
    y_3        capacity   1.82109
    y_4        OBJ        0.663774
    y_4        c_179      1
    y_4        capacity   0.165943
    MARKER    'MARKER'                 'INTEND'
RHS
    RHS       capacity   8.97056
    RHS       c_175      1
    RHS       c_176      1
    RHS       c_177      1
    RHS       c_178      1
    RHS       c_179      1
BOUNDS
 LI BND       x_0        0
 UI BND       x_0        1
 LI BND       x_1        0
 UI BND       x_1        1
 LI BND       x_2        0
 UI BND       x_2        1
 LI BND       x_3        0
 UI BND       x_3        1
 LI BND       x_4        0
 UI BND       x_4        1
 LI BND       y_0        0
 UI BND       y_0        1
 LI BND       y_1        0
 UI BND       y_1        1
 LI BND       y_2        0
 UI BND       y_2        1
 LI BND       y_3        0
 UI BND       y_3        1
 LI BND       y_4        0
 UI BND       y_4        1
ENDATA
